p wcnf 177 266 267 
1 162 61 0 
1 -108 13 0 
1 -96 -19 0 
1 -71 -145 0 
1 109 -13 0 
1 -166 144 0 
1 37 58 0 
1 7 -90 0 
1 -82 109 0 
1 -98 69 0 
1 -126 -28 0 
1 25 90 0 
1 -21 157 0 
1 143 168 0 
1 -118 111 0 
1 -149 38 0 
1 62 -172 0 
1 80 -69 0 
1 125 44 0 
1 177 -60 0 
1 27 -137 0 
1 -49 -106 0 
1 -145 73 0 
1 148 -47 0 
1 -168 66 0 
1 -37 176 0 
1 -141 47 0 
1 -102 154 0 
1 116 -140 0 
1 45 103 0 
1 165 166 0 
1 -160 -139 0 
1 104 -158 0 
1 56 -147 0 
1 6 136 0 
1 82 100 0 
1 34 -72 0 
1 -126 -131 0 
1 -152 28 0 
1 90 -87 0 
1 117 -113 0 
1 120 162 0 
1 -93 50 0 
1 32 82 0 
1 163 157 0 
1 54 8 0 
1 117 157 0 
1 91 -144 0 
1 -38 -35 0 
1 -75 -120 0 
1 -28 -137 0 
1 -56 112 0 
1 -31 -96 0 
1 97 -3 0 
1 66 123 0 
1 146 -134 0 
1 50 173 0 
1 -10 105 0 
1 98 50 0 
1 -42 -48 0 
1 -81 162 0 
1 -116 -2 0 
1 31 -94 0 
1 52 168 0 
1 83 17 0 
1 96 -174 0 
1 124 -24 0 
1 -1 -171 0 
1 -98 12 0 
1 -102 35 0 
1 142 -53 0 
1 -111 -53 0 
1 -56 -136 0 
1 -67 -136 0 
1 7 -101 0 
1 77 91 0 
1 29 6 0 
1 -94 81 0 
1 -93 -2 0 
1 53 -102 0 
1 117 -60 0 
1 93 -16 0 
1 -95 91 0 
1 -80 -27 0 
1 -127 -107 0 
1 131 -134 0 
1 168 155 0 
1 79 -137 0 
1 -106 -159 0 
1 14 -58 0 
1 -63 -72 0 
1 -176 -154 0 
1 -106 119 0 
1 126 12 0 
1 126 -75 0 
1 -84 -114 0 
1 125 11 0 
1 92 116 0 
1 -42 95 0 
1 95 -6 0 
1 -86 -120 0 
1 78 -111 0 
1 42 -158 0 
1 -177 151 0 
1 136 -56 0 
1 62 -66 0 
1 79 -153 0 
1 24 -100 0 
1 96 -97 0 
1 -133 174 0 
1 146 -27 0 
1 -94 160 0 
1 -130 68 0 
1 -17 172 0 
1 120 -172 0 
1 1 -69 0 
1 -127 -97 0 
1 15 123 0 
1 165 -16 0 
1 25 156 0 
1 -14 46 0 
1 -153 61 0 
1 -41 141 0 
1 -14 -160 0 
1 166 -36 0 
1 68 -71 0 
1 -96 13 0 
1 -85 -15 0 
1 -151 -5 0 
1 92 -88 0 
1 -54 -105 0 
1 -119 142 0 
1 130 -76 0 
1 -88 92 0 
1 177 150 0 
1 132 140 0 
1 24 153 0 
1 76 -25 0 
1 -140 -75 0 
1 50 104 0 
1 -177 -20 0 
1 -105 149 0 
1 23 122 0 
1 -24 -172 0 
1 -21 -128 0 
1 -21 -35 0 
1 -109 -64 0 
1 -177 -94 0 
1 -168 16 0 
1 -70 167 0 
1 -159 -130 0 
1 -162 30 0 
1 148 22 0 
1 -114 168 0 
1 -25 -154 0 
1 20 66 0 
1 112 -144 0 
1 166 -98 0 
1 77 139 0 
1 152 -93 0 
1 115 79 0 
1 2 -146 0 
1 -37 -36 0 
1 -66 110 0 
1 32 -109 0 
1 69 109 0 
1 -69 123 0 
1 -102 -40 0 
1 59 152 0 
1 -7 -12 0 
1 62 -102 0 
1 126 -29 0 
1 121 -69 0 
1 -133 -170 0 
1 124 54 0 
1 -12 56 0 
1 55 108 0 
1 -153 -50 0 
1 -120 154 0 
1 175 -138 0 
1 -9 -161 0 
1 -92 -68 0 
1 -36 1 0 
1 85 -7 0 
1 -37 31 0 
1 -143 163 0 
1 148 -81 0 
1 100 152 0 
1 -40 -50 0 
1 162 69 0 
1 -159 -145 0 
1 12 141 0 
1 39 -136 0 
1 -55 6 0 
1 9 -117 0 
1 -10 91 0 
1 -83 -116 0 
1 42 -23 0 
1 -123 22 0 
1 52 72 0 
1 175 -44 0 
1 132 -108 0 
1 45 -122 0 
1 158 39 0 
1 61 160 0 
1 96 -154 0 
1 -160 147 0 
1 -30 -49 0 
1 118 -68 0 
1 152 -176 0 
1 -159 121 0 
1 90 -111 0 
1 51 151 0 
1 26 -167 0 
1 -28 -150 0 
1 -113 -70 0 
1 -167 168 0 
1 40 79 0 
1 -163 68 0 
1 -91 -118 0 
1 -102 -149 0 
1 56 -162 0 
1 27 -65 0 
1 77 -7 0 
1 -22 118 0 
1 132 164 0 
1 65 46 0 
1 -12 105 0 
1 63 -4 0 
1 -106 -177 0 
1 32 31 0 
1 119 -10 0 
1 -55 -114 0 
1 -175 149 0 
1 5 7 0 
1 51 -104 0 
1 -134 -145 0 
1 84 -34 0 
1 109 113 0 
1 -49 -96 0 
1 -83 -50 0 
1 53 -152 0 
1 131 -99 0 
1 14 151 0 
1 -169 127 0 
1 146 26 0 
1 -133 42 0 
1 -42 77 0 
1 -103 155 0 
1 -24 -113 0 
1 -129 131 0 
1 78 46 0 
1 67 -175 0 
1 -93 -156 0 
1 -137 134 0 
1 131 -104 0 
1 -109 138 0 
1 29 -20 0 
1 2 91 0 
1 95 173 0 
1 -81 -80 0 
1 -130 -85 0 
1 161 -119 0 
1 49 -65 0 
1 67 -83 0 
1 -21 -170 0 
